p edge 95
e 0 2
e 0 17
e 0 41
e 0 83
e 0 90
e 1 26
e 1 34
e 1 83
e 1 86
e 2 7
e 2 41
e 2 67
e 2 90
e 2 92
e 3 4
e 3 10
e 3 49
e 3 74
e 3 82
e 4 81
e 4 82
e 5 36
e 5 39
e 5 57
e 5 61
e 5 62
e 5 69
e 5 79
e 6 34
e 6 46
e 6 50
e 6 67
e 6 87
e 6 92
e 7 24
e 7 27
e 7 41
e 7 47
e 7 57
e 7 67
e 8 14
e 8 25
e 8 33
e 8 53
e 8 54
e 8 68
e 8 89
e 8 94
e 9 19
e 9 29
e 9 38
e 9 65
e 9 71
e 9 75
e 9 76
e 9 94
e 10 29
e 10 49
e 10 71
e 11 13
e 11 19
e 11 74
e 12 31
e 12 32
e 12 46
e 12 77
e 12 87
e 13 19
e 13 55
e 13 75
e 14 22
e 14 25
e 14 51
e 14 94
e 15 33
e 15 35
e 15 63
e 15 68
e 15 78
e 16 26
e 16 43
e 16 44
e 16 70
e 17 24
e 17 41
e 17 60
e 18 24
e 18 39
e 18 57
e 18 58
e 18 59
e 18 60
e 18 66
e 19 49
e 19 71
e 19 74
e 19 75
e 20 22
e 20 30
e 20 51
e 20 88
e 21 37
e 21 48
e 22 51
e 22 88
e 22 94
e 23 27
e 23 36
e 23 62
e 23 79
e 23 91
e 24 41
e 24 57
e 24 60
e 25 51
e 25 89
e 25 93
e 26 44
e 26 86
e 27 47
e 27 57
e 27 62
e 27 91
e 28 80
e 28 81
e 29 71
e 29 76
e 30 56
e 30 88
e 31 42
e 31 46
e 31 77
e 31 86
e 32 77
e 32 85
e 33 35
e 33 45
e 33 54
e 33 68
e 34 46
e 34 83
e 34 86
e 34 90
e 34 92
e 35 45
e 35 63
e 36 52
e 36 61
e 36 79
e 37 48
e 37 64
e 37 72
e 38 45
e 38 54
e 38 55
e 38 75
e 38 94
e 39 57
e 39 66
e 39 69
e 40 42
e 40 43
e 40 44
e 40 64
e 40 72
e 42 44
e 42 72
e 42 77
e 42 85
e 42 86
e 43 44
e 43 64
e 43 70
e 44 86
e 45 54
e 45 55
e 46 86
e 46 87
e 47 50
e 47 67
e 47 73
e 47 91
e 48 72
e 48 85
e 49 71
e 49 74
e 50 67
e 50 73
e 50 87
e 51 52
e 51 93
e 52 61
e 52 93
e 53 66
e 53 68
e 53 69
e 53 89
e 54 94
e 55 75
e 56 65
e 56 76
e 56 88
e 57 62
e 58 59
e 58 66
e 58 68
e 58 78
e 58 84
e 59 60
e 59 84
e 60 84
e 61 69
e 61 93
e 62 79
e 63 78
e 63 84
e 64 72
e 65 76
e 65 88
e 65 94
e 66 68
e 66 69
e 67 92
e 68 78
e 69 89
e 69 93
e 72 85
e 73 87
e 73 91
e 74 80
e 74 82
e 77 85
e 78 84
e 80 81
e 80 82
e 81 82
e 83 90
e 88 94
e 89 93
e 90 92
c k 9
